27 3
4 3 4
0 0 0 0 25 2 3 4 5 6 7 8 9 10 11 12 13 14 15 16 17 18 19 20 21 22 23 24 25 26
5 1 1 1 6 27 24 10 25 18 18
3 0 1 0 2 27 20
1 0 0 0 4 27 12 10 13
1 2 1 2 3 27 12 14
2 0 1 2 8 27 17 18 17 21 12 15 10
1 1 1 1 2 27 17
2 0 0 2 3 27 18 12
2 2 0 0 3 27 16 13
1 1 1 1 1 27
2 2 0 2 6 27 13 15 20 25 17
4 1 0 2 3 27 14 21
2 1 1 2 2 27 16
5 0 0 2 4 27 16 24 16
3 0 0 1 1 27
3 2 1 0 4 27 22 17 20
2 2 1 2 2 27 25
1 2 0 1 1 27
5 2 1 2 5 27 21 26 25 22
5 2 0 1 2 27 24
4 1 0 0 3 27 25 26
2 2 0 2 1 27
5 2 0 1 1 27
2 1 0 2 1 27
3 1 0 0 1 27
2 0 0 0 1 27
0 0 0 0 0
